# Solution for model micodag
# Objective value = 8.1735521670691167e+00
s_0_1 0
s_1_0 0
s_0_2 0
s_2_0 0
s_0_4 0
s_4_0 1.9213853659011448e-01
s_1_2 0
s_2_1 4.5116629634776695e-01
s_1_3 0
s_3_1 2.3501871291032961e-01
s_2_4 0
s_4_2 0.408206820614899
s_4_5 0
s_5_4 6.7874656459133487e-01
s_0_0 6.1886508587977218e-01
s_1_1 6.8169631527923613e-01
s_2_2 6.0001496883202510e-01
s_3_3 7.6071961344768657e-01
s_4_4 6.6847031509332466e-01
s_5_5 1.0908734425858728e+00
Gamma_0_0 0.786679786113621
Gamma_0_1 0
Gamma_0_2 0
Gamma_0_3 0
Gamma_0_4 0
Gamma_0_5 0
Gamma_1_0 0
Gamma_1_1 8.2564902669308371e-01
Gamma_1_2 0
Gamma_1_3 0
Gamma_1_4 0
Gamma_1_5 0
Gamma_2_0 0
Gamma_2_1 0.671689136690305
Gamma_2_2 7.7460633152074421e-01
Gamma_2_3 0
Gamma_2_4 0
Gamma_2_5 0
Gamma_3_0 0
Gamma_3_1 4.8478728625071227e-01
Gamma_3_2 0
Gamma_3_3 8.7219241767381039e-01
Gamma_3_4 0
Gamma_3_5 0
Gamma_4_0 -4.3833610003068973e-01
Gamma_4_1 0
Gamma_4_2 -6.3891065151153881e-01
Gamma_4_3 0
Gamma_4_4 8.1760033946502531e-01
Gamma_4_5 0
Gamma_5_0 0
Gamma_5_1 0
Gamma_5_2 0
Gamma_5_3 0
Gamma_5_4 -0.82386076772191
Gamma_5_5 1.0444488702592736e+00
psi_0 2
psi_1 3
psi_2 2
psi_3 0
psi_4 1
psi_5 0
g_0_0 0
g_0_1 0
g_0_2 0
g_0_3 0
g_0_4 0
g_0_5 0
g_1_0 0
g_1_1 0
g_1_2 0
g_1_3 0
g_1_4 0
g_1_5 0
g_2_0 0
g_2_1 1
g_2_2 0
g_2_3 0
g_2_4 0
g_2_5 0
g_3_0 0
g_3_1 1
g_3_2 0
g_3_3 0
g_3_4 0
g_3_5 0
g_4_0 1
g_4_1 0
g_4_2 1
g_4_3 0
g_4_4 0
g_4_5 0
g_5_0 0
g_5_1 0
g_5_2 0
g_5_3 0
g_5_4 1
g_5_5 0
T_0 4.7986798501315775e-01
T_1 0.383171005822021
T_2 5.1080067602381973e-01
T_3 2.7349043389114058e-01
T_4 4.0276328867166455e-01
T_5 -0.086978698826087
